(declare-const a sl.list.loc)
(declare-const b sl.list.loc)
(declare-const c sl.list.loc)
(declare-const d sl.list.loc)
(declare-const e Int)
(declare-const f Int)
(declare-const g Int)
(declare-const h Int)
(assert (and (sl.list a)
             (sl.sepcon (sl.sepcon (sl.list.dpointsto a b e)
                              (sl.list.dpointsto b c f))
                   (sl.sepcon (sl.list.dpointsto c d g)
                              (sl.list.dpointsto d sl.list.null h)))))
